Max time = 7200.0
Tried aggregator 1 time.
MIP Presolve eliminated 9170 rows and 0 columns.
MIP Presolve modified 314 coefficients.
Reduced MIP has 2989 rows, 30274 columns, and 220064 nonzeros.
Reduced MIP has 30274 binaries, 0 generals, 0 SOSs, and 0 indicators.
Presolve time = 0.65 sec. (181.22 ticks)
Tried aggregator 1 time.
Reduced MIP has 2989 rows, 30274 columns, and 220064 nonzeros.
Reduced MIP has 30274 binaries, 0 generals, 0 SOSs, and 0 indicators.
Presolve time = 0.37 sec. (88.76 ticks)
Probing time = 0.30 sec. (10.56 ticks)
Clique table members: 33469.
MIP emphasis: balance optimality and feasibility.
MIP search method: dynamic search.
Parallel mode: deterministic, using up to 4 threads.
Root relaxation solution time = 45.17 sec. (8114.69 ticks)

        Nodes                                         Cuts/
   Node  Left     Objective  IInf  Best Integer    Best Bound    ItCnt     Gap

      0     0       26.0000  2690                     26.0000        0         
      0     2       26.0000  2138                     26.0000    16369         
Elapsed time = 522.86 sec. (88513.34 ticks, tree = 0.01 MB, solutions = 0)
      1     3       26.0000  2311                     26.0000    17039         
      2     4       26.0000  2386                     26.0000    17380         
      4     4       26.0000  2214                     26.0000    31453         
      5     3       26.0000  2156                     26.0000    31537         
      6     6       26.0000  2242                     26.0000    32701         
      8     8       26.0000  2438                     26.0000    47846         
      9     9       26.0000  2261                     26.0000    62455         
     10    11       26.0000  2451                     26.0000    78031         
     11    12       26.0000  2364                     26.0000    79672         
     12    10       26.0000  2299                     26.0000    64745         
Elapsed time = 770.72 sec. (121899.17 ticks, tree = 0.14 MB, solutions = 0)
     14     7       26.0000  2007                     26.0000    47168         
     15    15       26.0000  2258                     26.0000    82585         
     16    16       26.0000  2069                     26.0000    98094         
     18    10       26.0000  2083                     26.0000    92615         
     19    16       26.0000  2214                     26.0000    84722         
     20    18       26.0000  2219                     26.0000   100636         
     22    19       26.0000  2148                     26.0000   115469         
     23    21       26.0000  2204                     26.0000   118805         
     24    23       26.0000  2062                     26.0000   120525         
     25    19       26.0000  2219                     26.0000   102376         
Elapsed time = 942.73 sec. (143895.14 ticks, tree = 0.98 MB, solutions = 0)
     26    20       26.0000  2098                     26.0000   116266         
     27    24       26.0000  2063                     26.0000   122060         
     28    25       26.0000  2221                     26.0000   125217         
     29    27       26.0000  2195                     26.0000   126543         
     32    30       26.0000  2153                     26.0000   143251         
     34    31       26.0000  2252                     26.0000   141917         
     36    31       26.0000  2209                     26.0000   146818         
     37    34       26.0000  1913                     26.0000   163229         
     39    38       26.0000  2294                     26.0000   178874         
     40    42       26.0000  2196                     26.0000   222091         
Elapsed time = 1306.53 sec. (192679.08 ticks, tree = 2.13 MB, solutions = 0)
     41    40       26.0000  2204                     26.0000   208137         
     42    39       26.0000  1993                     26.0000   195891         
     43    43       26.0000  1981                     26.0000   225332         
     46    45       26.0000  2076                     26.0000   228505         
     47    44       26.0000  2146                     26.0000   227519         
     49    45       26.0000  1941                     26.0000   228813         
     50    48       26.0000  2090                     26.0000   233595         
     53    53       26.0000  1911                     26.0000   250666         
     54    49       26.0000  2077                     26.0000   235160         
     57    55       26.0000  1912                     26.0000   252092         
Elapsed time = 1551.06 sec. (228869.48 ticks, tree = 3.02 MB, solutions = 0)
     58    50       26.0000  2127                     26.0000   247649         
     60    51       26.0000  2116                     26.0000   247899         
     61    46       26.0000  2067                     26.0000   229296         
     63    57       26.0000  1910                     26.0000   253113         
     65    58       26.0000  2066                     26.0000   258581         
     66    58       26.0000  1920                     26.0000   253498         
     68    53       26.0000  2068                     26.0000   250133         
     69    64       26.0000  1922                     26.0000   263726         
     72    56       26.0000  2023                     26.0000   256883         
     73    65       26.0000  1922                     26.0000   264488         
Elapsed time = 1722.20 sec. (252439.81 ticks, tree = 4.98 MB, solutions = 0)
     75    57       26.0000  2006                     26.0000   257543         
     76    66       26.0000  1932                     26.0000   264940         
     77    70       26.0000  2009                     26.0000   282870         
     78    72       26.0000  1797                     26.0000   285174         
     81    75       26.0000  2018                     26.0000   289317         
     82    78       26.0000  1957                     26.0000   306749         
     84    80       26.0000  1865                     26.0000   328103         
     85    79       26.0000  1925                     26.0000   307946         
     86    80       26.0000  1921                     26.0000   309057         
     88    76       26.0000  2010                     26.0000   289987         
Elapsed time = 2007.94 sec. (293764.03 ticks, tree = 6.13 MB, solutions = 0)
     89    82       26.0000  1899                     26.0000   330308         
     90    86       26.0000  1991                     26.0000   335703         
     91    87       26.0000  2000                     26.0000   336168         
     93    88       26.0000  1979                     26.0000   336297         
     94    89       26.0000  2014                     26.0000   338030         
     95    90       26.0000  1924                     26.0000   340352         
     97    91       26.0000  1896                     26.0000   340883         
     98    91       26.0000  2010                     26.0000   339702         
     99    92       26.0000  1837                     26.0000   342341         
    100    92       26.0000  1980                     26.0000   341293         
Elapsed time = 2243.97 sec. (323999.00 ticks, tree = 8.52 MB, solutions = 0)
    101    93       26.0000  1836                     26.0000   345143         
    102    97       26.0000  1966                     26.0000   348487         
    103    94       26.0000  1838                     26.0000   347569         
    104    98       26.0000  1748                     26.0000   358670         
    105   102       26.0000  1763                     26.0000   365155         
    106    99       26.0000  1771                     26.0000   359678         
    107   101    infeasible                           26.0000   366971         
    108   100       26.0000  1828                     26.0000   360828         
    109   102       26.0000  1756                     26.0000   367799         
    110    83       26.0000  1959                     26.0000   336544         
Elapsed time = 2448.61 sec. (357627.91 ticks, tree = 9.95 MB, solutions = 0)
    111   106       26.0000  1802                     26.0000   369791         
    112   103       26.0000  1691                     26.0000   369357         
    113   107       26.0000  1926                     26.0000   372582         
    115    61       26.0000  2038                     26.0000   263612         
    116   107    infeasible                           26.0000   388604         
    117   108       26.0000  1740                     26.0000   371222         
    118   108       26.0000  1731                     26.0000   389166         
    120   113       26.0000  2111                     26.0000   394397         
    122   110       26.0000  1706                     26.0000   374100         
    123   111       26.0000  1674                     26.0000   374333         
Elapsed time = 2591.51 sec. (379133.83 ticks, tree = 11.02 MB, solutions = 0)
    125   109       26.0000  1836                     26.0000   377076         
    127   119       26.0000  1691                     26.0000   399792         
    129   120       26.0000  1673                     26.0000   400097         
    131   110       26.0000  1919                     26.0000   379019         
    133   121       26.0000  1676                     26.0000   400709         
    135   123       26.0000  1885                     26.0000   406694         
    136   116       26.0000  2022                     26.0000   398111         
    139   124       26.0000  1647                     26.0000   414260         
    140   124       26.0000  1883                     26.0000   407921         
    144   125       26.0000  1834                     26.0000   409266         
Elapsed time = 2759.78 sec. (401248.43 ticks, tree = 12.27 MB, solutions = 0)
    149   125       26.0000  1506                     26.0000   408171         
    152   137       26.0000  1394                     26.0000   432278         
    157   126    infeasible                           26.0000   423919         
    161   132       26.0000  1759                     26.0000   434001         
    165   133       26.0000  1788                     26.0000   434600         
    167   139       26.0000  1434                     26.0000   447006         
    168   138    infeasible                           26.0000   449508         
    170   138    infeasible                           26.0000   451275         
    174   141       26.0000  1234                     26.0000   440303         
    178   150       26.0000  1128                     26.0000   478579         
Elapsed time = 3083.89 sec. (447557.67 ticks, tree = 15.13 MB, solutions = 0)
    183   150       26.0000  1118                     26.0000   482067         
    186   139    infeasible                           26.0000   459631         
    191   150       26.0000  1094                     26.0000   488505         
    195   149       26.0000  1688                     26.0000   472279         
    197   151       26.0000  1039                     26.0000   496021         
    201   150    infeasible                           26.0000   498467         
    205   152       26.1714  1054                     26.0000   502112         
    209   152    infeasible                           26.0000   505463         
    215   161       26.0000  1496                     26.0000   506805         
    222   162       26.0000  1501                     26.0000   507088         
Elapsed time = 3401.76 sec. (492273.59 ticks, tree = 18.65 MB, solutions = 0)
    226   166       26.0000  1607                     26.0000   524884         
    231   158       26.1739  1288                     26.0000   506766         
    235   165       26.0000  1466                     26.0000   511608         
    240   170       26.0000  1602                     26.0000   528322         
    244   171       26.0000  1546                     26.0000   529759         
    247   172       26.0000  1509                     26.0000   531739         
    255   182       26.0000  1471                     26.0000   580678         
    260   181    infeasible                           26.0000   583161         
    265   198       26.0000  1450                     26.0000   607779         
    269   183       26.1429  1428                     26.0000   586494         
Elapsed time = 3712.96 sec. (535844.23 ticks, tree = 21.32 MB, solutions = 0)
    277   177       26.3559  1279                     26.0000   588942         
    284   182    infeasible                           26.0000   591330         
    292   200       26.0000  1329                     26.0000   614609         
    298   200       26.0000  1322                     26.0000   616081         
    305   199       26.0000  1221                     26.0000   606028         
    312   199       26.0000  1175                     26.0000   608776         
    319   200       26.0000  1073                     26.0000   611747         
    326   207       27.0000  1259                     26.0000   658711         
    332   208       26.3158  1231                     26.0000   661808         
    341   212       26.0000  1978                     26.0000   681406         
Elapsed time = 4021.81 sec. (577950.89 ticks, tree = 24.37 MB, solutions = 0)
    347   216       28.0000  1250                     26.0000   648636         
    354   211       26.9044  1055                     26.0000   672594         
    359   223       28.0000  1223                     26.0000   650834         
    367   244    infeasible                           26.0000   719834         
    373   245       28.3333  1251                     26.0000   722227         
    378   245       28.3333  1232                     26.0000   724002         
    382   212    infeasible                           26.0000   691199         
    389   245       28.3333  1199                     26.0000   730823         
    395   216       26.0000  1791                     26.0000   686194         
    401   245    infeasible                           26.0000   737330         
Elapsed time = 4339.45 sec. (621591.81 ticks, tree = 32.34 MB, solutions = 0)
    411   259       28.0000  1093                     26.0000   765756         
    420   260       26.0000  1809                     26.0000   771942         
    426   254       30.0000   844                     26.0000   743563         
    434   225       26.0000  2085                     26.0000   721019         
    439   263       26.0000  1689                     26.0000   776145         
    445   262       28.0000   786                     26.0000   784948         
    453   273       26.0000  1552                     26.0000   825298         
    461   270       28.0000   741                     26.0000   787466         
    470   268       26.0000  2021                     26.0000   791784         
    480   281       28.0000   656                     26.0000   790873         
Elapsed time = 4670.61 sec. (665886.16 ticks, tree = 33.71 MB, solutions = 0)
    488   275       26.0000  1558                     26.0000   830812         
*   490+  301                           28.0000       26.0000             7.14%
    492   276       26.0000  1503       28.0000       26.0000   832617    7.14%
    496   277       26.0000  1445       28.0000       26.0000   835389    7.14%
    501   270    infeasible             28.0000       26.0000   797766    7.14%
    507   249       26.0000  1473       28.0000       26.0000   880647    7.14%
    512   279       26.0000  1488       28.0000       26.0000   841244    7.14%
    516   250    infeasible             28.0000       26.0000   884680    7.14%
    522   251       26.0000  1359       28.0000       26.0000   886238    7.14%
    528   254       26.1667  1465       28.0000       26.0000   899315    7.14%
    532   252    infeasible             28.0000       26.0000   892149    7.14%
Elapsed time = 5000.43 sec. (714552.87 ticks, tree = 30.74 MB, solutions = 1)
    536   252       26.0000  1633       28.0000       26.0000   894284    7.14%
    540   254       26.0000  1646       28.0000       26.0000   895302    7.14%
    545   265       26.0000  1628       28.0000       26.0000   919253    7.14%
    550   267       26.0000  1624       28.0000       26.0000   920175    7.14%
    556   274       26.0000  1944       28.0000       26.0000   929161    7.14%
    563   275       26.0000  1957       28.0000       26.0000   930149    7.14%
    567   270       26.0000  1464       28.0000       26.0000   924367    7.14%
    570   271       26.0000  1391       28.0000       26.0000   926395    7.14%
    576   271    infeasible             28.0000       26.0000   928024    7.14%
    582   273       26.0000  1258       28.0000       26.0000   929786    7.14%
Elapsed time = 5304.45 sec. (758712.11 ticks, tree = 37.56 MB, solutions = 1)
    591   280       26.0000  1821       28.0000       26.0000   938839    7.14%
    599   273       26.0000  1245       28.0000       26.0000   934276    7.14%
    605   273    infeasible             28.0000       26.0000   937373    7.14%
    612   272    infeasible             28.0000       26.0000   939035    7.14%
    620   283       26.0000  1745       28.0000       26.0000   940737    7.14%
    629   288       26.0000  1870       28.0000       26.0000   943151    7.14%
    638   297       26.0000  1646       28.0000       26.0000   978394    7.14%
    645   299       26.0000  1621       28.0000       26.0000   979970    7.14%
    654   293       26.0000  1810       28.0000       26.0000   948104    7.14%
    660   293       26.0000  1802       28.0000       26.0000   949837    7.14%
Elapsed time = 5627.25 sec. (801910.38 ticks, tree = 40.92 MB, solutions = 1)
    668   306       27.0000  1646       28.0000       26.0000   983529    7.14%
    678   328       26.0000  1719       28.0000       26.0000  1012595    7.14%
    685   330       26.0000  1635       28.0000       26.0000  1014478    7.14%
    688   331       26.0000  1605       28.0000       26.0000  1016705    7.14%
    695   313       26.0000  1524       28.0000       26.0000  1017291    7.14%
    702   331       26.0000  1757       28.0000       26.0000  1020134    7.14%
    712   345       26.0000  2215       28.0000       26.0000  1041449    7.14%
    718   334       26.0000  1777       28.0000       26.0000  1021998    7.14%
    723   358       26.0000  1997       28.0000       26.0000  1061538    7.14%
    728   338       26.0000  1833       28.0000       26.0000  1024811    7.14%
Elapsed time = 5963.19 sec. (845720.39 ticks, tree = 53.24 MB, solutions = 1)
    736   351       26.0000  2189       28.0000       26.0000  1044713    7.14%
    740   352       26.0000  2159       28.0000       26.0000  1045908    7.14%
    746   380    infeasible             28.0000       26.0000  1106836    7.14%
    752   363       26.0000  1854       28.0000       26.0000  1067211    7.14%
    757   393       26.0000  2114       28.0000       26.0000  1120242    7.14%
    762   365       26.0000  1831       28.0000       26.0000  1069484    7.14%
    768   395       26.0000  2044       28.0000       26.0000  1121784    7.14%
    774   375       26.0000  1897       28.0000       26.0000  1095106    7.14%
    778   403       26.0000  1782       28.0000       26.0000  1133201    7.14%
    783   376       26.0000  1877       28.0000       26.0000  1099010    7.14%
Elapsed time = 6301.24 sec. (890824.04 ticks, tree = 63.77 MB, solutions = 1)
    786   399       26.0000  1901       28.0000       26.0000  1126266    7.14%
    792   388       26.0000  1923       28.0000       26.0000  1127529    7.14%
    795   390       26.0000  1957       28.0000       26.0000  1128367    7.14%
    801   392       26.0000  1907       28.0000       26.0000  1129595    7.14%
    807   428       26.0000  1894       28.0000       26.0000  1169442    7.14%
    809   429       26.0000  1837       28.0000       26.0000  1170761    7.14%
    814   419       26.0000  1607       28.0000       26.0000  1160875    7.14%
    820   419    infeasible             28.0000       26.0000  1163236    7.14%
    826   419    infeasible             28.0000       26.0000  1165002    7.14%
    831   442       26.0000  1596       28.0000       26.0000  1191159    7.14%
Elapsed time = 6623.43 sec. (935196.40 ticks, tree = 69.17 MB, solutions = 1)
    835   437       26.0000  1796       28.0000       26.0000  1177276    7.14%
    842   440       26.0000  1806       28.0000       26.0000  1177992    7.14%
    851   445       26.0000  1608       28.0000       26.0000  1197857    7.14%
    856   447       26.0000  1976       28.0000       26.0000  1221391    7.14%
    863   448       26.0000  1420       28.0000       26.0000  1203048    7.14%
    869   449       26.0000  1948       28.0000       26.0000  1223772    7.14%
    874   452       26.0000  1381       28.0000       26.0000  1207900    7.14%
    878   452       26.0000   912       28.0000       26.0000  1214039    7.14%
    885   452       26.0000   925       28.0000       26.0000  1218117    7.14%
    889   451       26.0000  1840       28.0000       26.0000  1220489    7.14%
Elapsed time = 6957.54 sec. (977656.13 ticks, tree = 79.38 MB, solutions = 1)
    893   475    infeasible             28.0000       26.0000  1242289    7.14%
    899   484       26.0000  2035       28.0000       26.0000  1267629    7.14%
    904   497       26.0000  1662       28.0000       26.0000  1295289    7.14%
    911   498       26.0000  1630       28.0000       26.0000  1296533    7.14%
    916   499       26.0000  1533       28.0000       26.0000  1298919    7.14%
    922   500       26.0000  1480       28.0000       26.0000  1300713    7.14%
    928   505       26.1111  1460       28.0000       26.0000  1318397    7.14%

Root node processing (before b&c):
  Real time             =  518.69 sec. (87734.93 ticks)
Parallel b&c, 4 threads:
  Real time             = 6683.69 sec. (924616.91 ticks)
  Sync time (average)   =  187.66 sec.
  Wait time (average)   =    0.02 sec.
                          ------------
Total (root+branch&cut) = 7202.38 sec. (1012351.84 ticks)
P#1 = 1.0
P#13 = 1.0
P#34 = 1.0
P#51 = 1.0
P#69 = 1.0
P#76 = 1.0
P#80 = 1.0
P#89 = 1.0
P#94 = 1.0
P#107 = 1.0
P#115 = 1.0
P#120 = 1.0
P#157 = 1.0
P#158 = 1.0
P#191 = 1.0
P#200 = 1.0
P#208 = 1.0
P#221 = 1.0
P#235 = 1.0
P#239 = 1.0
P#246 = 1.0
P#251 = 1.0
P#264 = 1.0
P#276 = 1.0
P#302 = 1.0
P#314 = 1.0
P#236 = 1.0
P#79 = 1.0
X#1#251 = 1.0
X#2#302 = 1.0
X#3#158 = 1.0
X#4#200 = 1.0
X#5#236 = 1.0
X#6#76 = 1.0
X#7#264 = 1.0
X#8#239 = 1.0
X#9#276 = 1.0
X#10#191 = 1.0
X#11#208 = 1.0
X#12#107 = 1.0
X#13#157 = 1.0
X#14#69 = 1.0
X#15#246 = 1.0
X#16#221 = 1.0
X#17#13 = 1.0
X#18#51 = 1.0
X#19#34 = 1.0
X#20#314 = 1.0
X#21#79 = 1.0
X#22#235 = 1.0
X#23#120 = 1.0
X#24#1 = 0.9999999999999969
X#25#94 = 1.0
X#26#89 = 1.0
X#27#80 = 1.0
X#28#115 = 1.0
L#1#1 = 1.0
F#1#28#1 = 1.0
L#1#3 = 1.0
F#1#19#3 = 1.0
L#1#5 = 1.0
F#1#14#5 = 1.0
L#1#7 = 1.0
F#1#23#7 = 1.0
L#1#9 = 1.0
F#1#26#9 = 1.0
L#1#11 = 1.0
F#1#20#11 = 1.0
L#1#13 = 1.0
F#1#10#13 = 1.0
L#1#15 = 1.0
F#1#11#15 = 1.0
L#1#17 = 1.0
F#1#16#17 = 1.0
L#1#18 = 1.0
F#1#5#18 = 1.0
L#1#20 = 1.0
F#1#22#20 = 1.0
L#1#22 = 1.0
F#1#13#22 = 1.0
L#1#24 = 1.0
F#1#12#24 = 1.0
L#1#26 = 1.0
F#1#17#26 = 1.0
L#2#1 = 1.0
F#2#27#1 = 1.0
L#2#3 = 1.0
F#2#21#3 = 1.0
L#2#5 = 1.0
F#2#20#5 = 1.0
L#2#6 = 1.0
F#2#10#6 = 1.0
L#2#8 = 1.0
F#2#7#8 = 1.0
L#2#10 = 1.0
F#2#1#10 = 1.0
L#2#12 = 1.0
F#2#5#12 = 0.9999999999999946
L#2#14 = 1.0
F#2#8#14 = 1.0
L#2#16 = 1.0
F#2#22#16 = 1.0
L#2#18 = 1.0
F#2#13#18 = 1.0
L#2#20 = 1.0
F#2#19#20 = 1.0
L#2#22 = 1.0
F#2#28#22 = 1.0
L#2#24 = 1.0
F#2#24#24 = 1.0
L#2#26 = 1.0
F#2#25#26 = 1.0
L#3#1 = 1.0
F#3#26#1 = 1.0
L#3#4 = 1.0
F#3#2#4 = 1.0
L#3#6 = 1.0
F#3#16#6 = 1.0
L#3#8 = 1.0
F#3#1#8 = 1.000000000000012
L#3#10 = 1.0
F#3#4#10 = 1.0
L#3#12 = 1.0
F#3#8#12 = 1.000000000000012
L#3#14 = 1.0
F#3#5#14 = 1.0
L#3#16 = 1.0
F#3#18#16 = 0.9999999999999826
L#3#18 = 1.0
F#3#19#18 = 1.0
L#3#20 = 1.0
F#3#24#20 = 1.0
L#3#22 = 1.0
F#3#9#22 = 1.0
L#3#24 = 1.0
F#3#25#24 = 1.0
L#3#26 = 1.0
F#3#6#26 = 1.0
L#4#1 = 1.0
F#4#25#1 = 1.0
L#4#3 = 1.0
F#4#18#3 = 1.0
L#4#5 = 1.0
F#4#6#5 = 1.0
L#4#7 = 1.0
F#4#2#7 = 1.0
L#4#9 = 1.0
F#4#10#9 = 1.0
L#4#12 = 1.0
F#4#11#12 = 1.0
L#4#14 = 1.0
F#4#16#14 = 1.0
L#4#16 = 1.0
F#4#1#16 = 1.0
L#4#18 = 1.0
F#4#23#18 = 1.0
L#4#20 = 1.0
F#4#8#20 = 1.0
L#4#22 = 1.0
F#4#14#22 = 1.0
L#4#24 = 1.0
F#4#9#24 = 1.0
L#4#26 = 1.0
F#4#26#26 = 1.0
L#5#1 = 1.0
F#5#24#1 = 1.0
L#5#3 = 1.0
F#5#17#3 = 1.0
L#5#5 = 1.0
F#5#18#5 = 1.0
L#5#7 = 1.0
F#5#12#7 = 1.0000000000000013
L#5#9 = 1.0
F#5#19#9 = 1.0
L#5#11 = 1.0
F#5#6#11 = 0.9999999999999996
L#5#13 = 1.0
F#5#9#13 = 1.0
L#5#15 = 1.0
F#5#10#15 = 1.0
L#5#17 = 1.0
F#5#11#17 = 1.0
L#5#19 = 1.0
F#5#4#19 = 1.0
L#5#21 = 1.0
F#5#16#21 = 1.0000000000000104
L#5#23 = 1.0
F#5#7#23 = 1.0000000000000022
L#5#25 = 1.0
F#5#22#25 = 1.0
L#5#27 = 1.0
F#5#8#27 = 0.9999999999999918
L#6#2 = 1.0
F#6#20#2 = 1.0
L#6#4 = 1.0
F#6#1#4 = 0.9999999999999858
L#6#6 = 1.0
F#6#7#6 = 1.0
L#6#8 = 1.0
F#6#16#8 = 0.9999999999999778
L#6#10 = 1.0
F#6#22#10 = 1.0
L#6#12 = 1.0
F#6#23#12 = 1.0
L#6#14 = 1.0
F#6#13#14 = 1.0
L#6#16 = 1.0
F#6#24#16 = 1.0
L#6#18 = 1.0
F#6#12#18 = 1.0
L#6#20 = 1.0
F#6#14#20 = 1.0
L#6#22 = 1.0
F#6#26#22 = 1.0
L#6#25 = 1.0
F#6#21#25 = 1.0
L#6#27 = 1.0
F#6#2#27 = 1.0
L#7#1 = 1.0
F#7#17#1 = 1.0
L#7#3 = 1.0
F#7#27#3 = 0.9999999999999778
L#7#5 = 1.0
F#7#21#5 = 1.0
L#7#7 = 1.0
F#7#20#7 = 1.0
L#7#9 = 1.0
F#7#3#9 = 0.9999999999999865
L#7#11 = 1.0
F#7#4#11 = 1.0
L#7#13 = 1.0
F#7#11#13 = 1.0
L#7#14 = 1.0
F#7#1#14 = 1.0
L#7#16 = 1.0
F#7#15#16 = 1.0
L#7#18 = 1.0
F#7#9#18 = 1.0
L#7#20 = 1.0
F#7#28#20 = 1.0
L#7#22 = 1.0
F#7#8#22 = 1.0
L#7#24 = 1.0
F#7#13#24 = 1.0
L#7#26 = 1.0
F#7#19#26 = 0.9999999999999658
L#8#1 = 1.0
F#8#13#1 = 1.0000000000000178
L#8#3 = 1.0
F#8#23#3 = 1.0
L#8#5 = 1.0
F#8#12#5 = 1.0
L#8#7 = 1.0
F#8#19#7 = 1.0
L#8#9 = 1.0
F#8#21#9 = 1.000000000000009
L#8#11 = 1.0
F#8#25#11 = 1.0
L#8#13 = 1.0
F#8#6#13 = 1.0
L#8#15 = 1.0
F#8#9#15 = 1.0
L#8#17 = 1.0
F#8#20#17 = 1.0
L#8#19 = 1.0
F#8#16#19 = 1.0
L#8#21 = 1.0
F#8#15#21 = 1.0
L#8#23 = 1.0
F#8#1#23 = 1.0
L#8#24 = 1.0
F#8#22#24 = 1.0
L#8#26 = 1.0
F#8#28#26 = 1.0
L#9#1 = 1.0
F#9#12#1 = 1.0
L#9#3 = 1.0
F#9#28#3 = 1.0
L#9#5 = 1.0
F#9#25#5 = 1.0
L#9#7 = 1.0
F#9#6#7 = 1.0
L#9#9 = 1.0
F#9#27#9 = 1.0000000000000218
L#9#10 = 1.0
F#9#15#10 = 1.0
L#9#12 = 1.0
F#9#16#12 = 1.0
L#9#14 = 1.0
F#9#24#14 = 1.0
L#9#16 = 1.0
F#9#17#16 = 1.0
L#9#19 = 1.0
F#9#23#19 = 1.0
L#9#21 = 1.0
F#9#20#21 = 1.0
L#9#23 = 1.0
F#9#2#23 = 1.0000000000000218
L#9#25 = 1.0
F#9#11#25 = 1.0000000000000202
L#9#27 = 1.0
F#9#1#27 = 1.0
L#10#1 = 1.0
F#10#6#1 = 1.0
L#10#3 = 1.0
F#10#12#3 = 1.0000000000000364
L#10#5 = 1.0
F#10#23#5 = 1.0000000000000555
L#10#7 = 1.0
F#10#3#7 = 1.0
L#10#10 = 1.0
F#10#11#10 = 1.0
L#10#12 = 1.0
F#10#7#12 = 1.0
L#10#14 = 1.0
F#10#17#14 = 1.0
L#10#16 = 1.0
F#10#8#16 = 1.0
L#10#18 = 1.0
F#10#22#18 = 1.0000000000000364
L#10#20 = 1.0
F#10#18#20 = 1.0
L#10#22 = 1.0
F#10#25#22 = 1.0
L#10#24 = 1.0
F#10#19#24 = 1.0
L#10#26 = 1.0
F#10#9#26 = 1.0
L#11#1 = 1.0
F#11#23#1 = 1.0
L#11#3 = 1.0
F#11#14#3 = 1.0000000000000056
L#11#5 = 1.0
F#11#3#5 = 1.0000000000000135
L#11#7 = 1.0
F#11#26#7 = 1.0000000000000142
L#11#9 = 1.0
F#11#6#9 = 1.0
L#11#11 = 1.0
F#11#2#11 = 1.0
L#11#14 = 1.0
F#11#15#14 = 1.0
L#11#16 = 1.0
F#11#16#16 = 1.0
L#11#18 = 1.0
F#11#8#18 = 1.0000000000000364
L#11#20 = 1.0
F#11#13#20 = 1.0000000000000018
L#11#22 = 1.0
F#11#17#22 = 1.0
L#11#24 = 1.0
F#11#28#24 = 1.0
L#11#26 = 1.0
F#11#12#26 = 1.0
L#12#2 = 1.0
F#12#15#2 = 1.0000000000000104
L#12#4 = 1.0
F#12#7#4 = 1.0
L#12#6 = 1.0
F#12#13#6 = 1.0000000000000002
L#12#8 = 1.0
F#12#22#8 = 1.0000000000000604
L#12#10 = 1.0
F#12#24#10 = 1.0000000000000016
L#12#12 = 1.0
F#12#19#12 = 1.0
L#12#13 = 1.0
F#12#18#13 = 1.0
L#12#15 = 1.0
F#12#26#15 = 0.9999999999999998
L#12#17 = 1.0
F#12#27#17 = 1.0
L#12#19 = 1.0
F#12#20#19 = 1.0
L#12#21 = 1.0
F#12#4#21 = 1.0
L#12#23 = 1.0
F#12#3#23 = 0.9999999999999826
L#12#25 = 1.0
F#12#2#25 = 1.0
L#12#27 = 1.0
F#12#16#27 = 0.9999999999999778
L#13#2 = 1.0
F#13#5#2 = 1.0
L#13#3 = 1.0
F#13#24#3 = 1.0
L#13#5 = 1.0
F#13#17#5 = 1.0
L#13#7 = 1.0
F#13#25#7 = 1.0
L#13#9 = 1.0
F#13#18#9 = 1.0
L#13#11 = 1.0
F#13#14#11 = 1.0000000000000002
L#13#13 = 1.0
F#13#21#13 = 1.0
L#13#15 = 1.0
F#13#3#15 = 1.000000000000024
L#13#17 = 1.0
F#13#9#17 = 1.0
L#13#19 = 1.0
F#13#10#19 = 1.0
L#13#21 = 1.0
F#13#23#21 = 1.0
L#13#23 = 1.0
F#13#4#23 = 0.9999999999999826
L#13#25 = 1.0
F#13#15#25 = 1.0000000000000164
L#13#27 = 1.0
F#13#22#27 = 1.0000000000000178
L#14#2 = 1.0
F#14#2#2 = 1.0
L#14#4 = 1.0
F#14#9#4 = 1.0
L#14#6 = 1.0
F#14#8#6 = 1.0000000000000058
L#14#8 = 1.0
F#14#5#8 = 1.0
L#14#10 = 1.0
F#14#23#10 = 1.0
L#14#12 = 1.0
F#14#24#12 = 1.0
L#14#14 = 1.0
F#14#12#14 = 1.0
L#14#16 = 1.0
F#14#28#16 = 1.0
L#14#18 = 1.0
F#14#18#18 = 1.0
L#14#21 = 1.0
F#14#27#21 = 1.0
L#14#23 = 1.0
F#14#10#23 = 1.0
L#14#25 = 1.0
F#14#3#25 = 1.0
L#14#27 = 1.0
F#14#7#27 = 1.0
L#15#1 = 1.0
F#15#14#1 = 1.0
L#15#3 = 1.0
F#15#6#3 = 1.0
L#15#5 = 1.0
F#15#26#5 = 1.0
L#15#7 = 1.0
F#15#27#7 = 0.9999999999999858
L#15#9 = 1.0
F#15#2#9 = 1.0
L#15#11 = 1.0
F#15#21#11 = 1.0000000000000253
L#15#13 = 1.0
F#15#3#13 = 1.0
L#15#15 = 1.0
F#15#4#15 = 1.0
L#15#17 = 1.0
F#15#10#17 = 1.0
L#15#19 = 1.0
F#15#1#19 = 1.0
L#15#20 = 1.0
F#15#5#20 = 1.0
L#15#22 = 1.0
F#15#22#22 = 1.0
L#15#24 = 1.0
F#15#17#24 = 1.0
L#15#26 = 1.0
F#15#18#26 = 1.0000000000000164
L#16#1 = 1.0
F#16#19#1 = 1.0
L#16#3 = 1.0
F#16#25#3 = 0.9999999999999778
L#16#5 = 1.0
F#16#27#5 = 1.0000000000000135
L#16#7 = 1.0
F#16#14#7 = 1.000000000000003
L#16#9 = 1.0
F#16#20#9 = 1.0
L#16#11 = 1.0
F#16#10#11 = 1.0
L#16#13 = 1.0
F#16#2#13 = 1.0
L#16#15 = 1.0
F#16#7#15 = 1.0
L#16#18 = 1.0
F#16#15#18 = 1.0
L#16#20 = 1.0
F#16#17#20 = 1.0
L#16#22 = 1.0
F#16#24#22 = 1.0
L#16#24 = 1.0
F#16#18#24 = 1.0
L#16#26 = 1.0
F#16#13#26 = 1.0
L#17#2 = 1.0
F#17#22#2 = 1.0
L#17#4 = 1.0
F#17#24#4 = 1.0
L#17#7 = 1.0
F#17#28#7 = 1.0
L#17#9 = 1.0
F#17#12#9 = 1.0
L#17#11 = 1.0
F#17#27#11 = 1.0
L#17#13 = 1.0
F#17#14#13 = 1.0000000000000013
L#17#15 = 1.0
F#17#6#15 = 1.0
L#17#17 = 1.0
F#17#21#17 = 1.0
L#17#19 = 1.0
F#17#2#19 = 1.0
L#17#21 = 1.0
F#17#3#21 = 1.0
L#17#23 = 1.0
F#17#23#23 = 1.0
L#17#25 = 1.0
F#17#8#25 = 1.0
L#17#27 = 1.0
F#17#4#27 = 1.0
L#18#2 = 1.0
F#18#1#2 = 1.0
L#18#4 = 1.0
F#18#8#4 = 1.0
L#18#6 = 1.0
F#18#17#6 = 1.0
L#18#8 = 1.0
F#18#9#8 = 1.0
L#18#10 = 1.0
F#18#7#10 = 1.0000000000000022
L#18#12 = 1.0
F#18#28#12 = 1.0
L#18#15 = 1.0
F#18#25#15 = 1.0
L#18#17 = 1.0
F#18#2#17 = 1.0
L#18#19 = 1.0
F#18#27#19 = 1.0
L#18#21 = 1.0
F#18#21#21 = 1.0
L#18#23 = 1.0
F#18#6#23 = 1.0
L#18#25 = 1.0
F#18#23#25 = 1.0
L#18#27 = 1.0
F#18#11#27 = 0.9999999999999807
L#19#2 = 1.0
F#19#9#2 = 1.0
L#19#4 = 1.0
F#19#13#4 = 1.0000000000000022
L#19#6 = 1.0
F#19#22#6 = 1.0000000000000062
L#19#8 = 1.0
F#19#17#8 = 1.0000000000000013
L#19#11 = 1.0
F#19#18#11 = 1.0
L#19#13 = 1.0
F#19#25#13 = 0.999999999999976
L#19#15 = 1.0
F#19#14#15 = 1.0
L#19#17 = 1.0
F#19#26#17 = 0.9999999999999998
L#19#19 = 1.0
F#19#21#19 = 1.0
L#19#21 = 1.0
F#19#6#21 = 1.0
L#19#23 = 1.0
F#19#11#23 = 1.0
L#19#25 = 1.0
F#19#4#25 = 1.0
L#19#27 = 1.0
F#19#15#27 = 0.9999999999999807
L#20#1 = 1.0
F#20#21#1 = 1.0
L#20#3 = 1.0
F#20#3#3 = 1.0
L#20#4 = 1.0
F#20#10#4 = 1.0
L#20#6 = 1.0
F#20#11#6 = 1.0
L#20#8 = 1.0
F#20#4#8 = 1.0
L#20#10 = 1.0
F#20#13#10 = 1.0000000000000002
L#20#12 = 1.0
F#20#15#12 = 1.0
L#20#14 = 1.0
F#20#19#14 = 1.0
L#20#16 = 1.0
F#20#23#16 = 1.0
L#20#18 = 1.0
F#20#17#18 = 1.0
L#20#20 = 1.0
F#20#25#20 = 0.9999999999999979
L#20#22 = 1.0
F#20#18#22 = 1.0
L#20#24 = 1.0
F#20#5#24 = 1.0
L#20#26 = 1.0
F#20#14#26 = 1.0
L#21#2 = 1.0
F#21#3#2 = 1.0
L#21#4 = 1.0
F#21#11#4 = 0.9999999999999858
L#21#6 = 1.0
F#21#4#6 = 1.0
L#21#8 = 1.0
F#21#10#8 = 1.0
L#21#10 = 1.0
F#21#16#10 = 1.000000000000003
L#21#12 = 1.0
F#21#1#12 = 1.0
L#21#14 = 1.0
F#21#23#14 = 0.999999999999976
L#21#16 = 1.0
F#21#5#16 = 1.0
L#21#18 = 1.0
F#21#24#18 = 1.0
L#21#20 = 1.0
F#21#9#20 = 1.0
L#21#22 = 1.0
F#21#12#22 = 1.0
L#21#24 = 1.0
F#21#14#24 = 1.0
L#21#26 = 1.0
F#21#27#26 = 1.0
L#22#1 = 1.0
F#22#18#1 = 1.0
L#22#3 = 1.0
F#22#26#3 = 1.000000000000042
L#22#5 = 1.0
F#22#28#5 = 1.0
L#22#7 = 1.0
F#22#21#7 = 1.0
L#22#9 = 1.0
F#22#14#9 = 1.0
L#22#11 = 1.0
F#22#9#11 = 1.0
L#22#13 = 1.0
F#22#4#13 = 1.0
L#22#15 = 1.0
F#22#20#15 = 1.0
L#22#17 = 1.0
F#22#3#17 = 1.0
L#22#19 = 1.0
F#22#7#19 = 0.9999999999999848
L#22#21 = 1.0
F#22#11#21 = 1.0
L#22#23 = 1.0
F#22#16#23 = 1.0
L#22#26 = 1.0
F#22#24#26 = 1.000000000000028
L#23#2 = 1.0000000000000258
F#23#16#2 = 1.0000000000000258
L#23#4 = 1.000000000000045
F#23#22#4 = 1.0000000000000555
L#23#6 = 1.0000000000000104
F#23#15#6 = 1.0000000000000104
L#23#8 = 1.0
F#23#24#8 = 1.0
L#23#9 = 1.0
F#23#25#9 = 1.0
L#23#11 = 1.0
F#23#3#11 = 1.0
L#23#13 = 1.0
F#23#27#13 = 1.0
L#23#15 = 1.0
F#23#2#15 = 1.0
L#23#17 = 1.0
F#23#7#17 = 1.0
L#23#20 = 1.0
F#23#12#20 = 1.0000000000000018
L#23#22 = 0.9999999999999896
F#23#19#22 = 0.9999999999999896
L#23#24 = 1.0
F#23#26#24 = 1.0
L#23#26 = 1.0
F#23#5#26 = 1.0
L#24#2 = 1.0
F#24#8#2 = 1.0
L#24#5 = 1.0
F#24#19#5 = 1.0
L#24#7 = 1.0
F#24#18#7 = 1.0
L#24#9 = 1.0
F#24#28#9 = 1.0
L#24#11 = 1.0000000000000127
F#24#26#11 = 1.0000000000000127
L#24#13 = 1.0
F#24#20#13 = 1.0
L#24#15 = 1.0000000000000089
F#24#27#15 = 1.0000000000000089
L#24#17 = 1.0
F#24#4#17 = 1.0
L#24#19 = 1.0
F#24#11#19 = 1.0
L#24#21 = 1.0
F#24#1#21 = 1.0
L#24#23 = 1.0
F#24#15#23 = 1.0
L#24#25 = 1.0
F#24#7#25 = 1.0
L#24#27 = 0.9999999999999969
F#24#10#27 = 0.9999999999999969
L#25#2 = 1.0
F#25#11#2 = 1.0
L#25#4 = 1.0
F#25#5#4 = 1.0
L#25#6 = 1.0
F#25#24#6 = 0.9999999999999905
L#25#8 = 1.0
F#25#15#8 = 1.0
L#25#10 = 1.0
F#25#17#10 = 0.9999999999999887
L#25#12 = 1.0
F#25#22#12 = 1.0
L#25#14 = 1.0
F#25#28#14 = 1.0
L#25#16 = 1.0
F#25#12#16 = 1.0
L#25#17 = 1.0
F#25#14#17 = 1.0
L#25#19 = 1.0
F#25#6#19 = 1.0
L#25#21 = 1.0
F#25#7#21 = 1.0
L#25#23 = 1.0
F#25#27#23 = 1.0000000000000109
L#25#25 = 1.0
F#25#1#25 = 1.0
L#25#27 = 1.0
F#25#21#27 = 0.9999999999999979
L#26#2 = 1.0
F#26#7#2 = 1.0
L#26#4 = 1.0
F#26#16#4 = 1.0
L#26#6 = 1.0
F#26#9#6 = 1.0
L#26#8 = 1.0
F#26#8#8 = 0.9999999999999956
L#26#10 = 1.0
F#26#5#10 = 1.0000000000000013
L#26#12 = 1.0
F#26#17#12 = 1.0
L#26#14 = 1.0
F#26#18#14 = 1.0
L#26#16 = 1.0
F#26#13#16 = 1.0
L#26#18 = 1.0
F#26#25#18 = 1.0
L#26#19 = 1.0
F#26#14#19 = 1.0
L#26#21 = 1.0
F#26#2#21 = 1.0
L#26#23 = 1.0
F#26#21#23 = 1.0
L#26#25 = 1.0
F#26#10#25 = 1.0000000000000142
L#26#27 = 1.0
F#26#20#27 = 1.0
L#27#2 = 1.0
F#27#10#2 = 1.0
L#27#4 = 1.0
F#27#4#4 = 1.0
L#27#6 = 1.0
F#27#1#6 = 1.0
L#27#8 = 1.0
F#27#11#8 = 0.9999999999999858
L#27#10 = 1.0
F#27#8#10 = 1.0
L#27#12 = 1.0
F#27#13#12 = 1.0
L#27#14 = 1.0
F#27#22#14 = 1.0
L#27#16 = 1.0
F#27#19#16 = 1.0
L#27#18 = 1.0
F#27#28#18 = 1.0
L#27#20 = 1.0
F#27#26#20 = 1.0
L#27#22 = 1.0
F#27#5#22 = 1.0000000000000109
L#27#24 = 1.0
F#27#6#24 = 1.0
L#27#25 = 1.0
F#27#20#25 = 1.0
L#27#27 = 1.0
F#27#3#27 = 1.0
L#28#2 = 1.0
F#28#4#2 = 1.0000000000000104
L#28#4 = 1.0
F#28#15#4 = 1.0000000000000104
L#28#6 = 1.0
F#28#5#6 = 1.0
L#28#8 = 1.0
F#28#13#8 = 1.0
L#28#10 = 1.0
F#28#19#10 = 1.0
L#28#11 = 1.0
F#28#12#11 = 1.0
L#28#13 = 1.0
F#28#26#13 = 1.0
L#28#15 = 1.0
F#28#21#15 = 1.0
L#28#17 = 1.0
F#28#6#17 = 1.0
L#28#19 = 1.0
F#28#3#19 = 1.0
L#28#21 = 1.0
F#28#10#21 = 1.0
L#28#23 = 1.0
F#28#20#23 = 1.0
L#28#25 = 1.0
F#28#16#25 = 1.0
L#28#27 = 1.0
F#28#23#27 = 1.0
